/*********************************************
 * OPL 20.1.0.0 Data
 * Author: hp
 * Creation Date: 03-Mar-2022 at 11:37:23 pm
 *********************************************/
size = 7;
cost = [[0,10000,1,5,8,10000,10000],
[10000,0,3,4,4,10000,10000],
[10000,10000,0,10000,10000,10000,10000],
[10000,10000,10000,0,10000,10000],
[10000,10000,10000,10000,0,10000],
[5,8,10000,10000,10000,0,10000]
[7,4,10000,10000,10000,10000,0]];
        
supply=[150,150,150,150,150,225,225];
demand=[150,150,200,210,190,150,150];

 